
molecule ethanol {
C          0.00000        0.00000        0.00000
C          1.45274        0.00000        0.00000
O          1.85381        0.00000        1.33090
H          2.82581       -0.00048        1.39632
H         -0.38827        0.00054       -1.02214
H         -0.37627       -0.88455        0.51876
H         -0.37627        0.88455        0.51876
H          1.81984       -0.84979       -0.50016
H          1.86921        0.84135       -0.49520
  0    1
}

set {
basis def2-SVP
}

E, wfn = energy('pbe0', return_wfn=True)
fchk_writer = psi4.FCHKWriter(wfn)
fchk_writer.write('FILL.fchk')

