
molecule ethanol {
C          0.00000        0.00000        0.00000
C          1.41182        0.00000        0.00000
O          1.78790        0.00000        1.30658
H          2.73483       -0.00443        1.45430
H         -0.37346       -0.11794       -0.99773
H         -0.50333       -0.61986        0.59730
H         -0.33531        0.94433        0.43427
H          1.75712       -0.83985       -0.52529
H          1.83357        0.75866       -0.68687
  0    1
}

set {
basis def2-SVP
}

E, wfn = energy('pbe0', return_wfn=True)
fchk_writer = psi4.FCHKWriter(wfn)
fchk_writer.write('FILL.fchk')

