
molecule ethanol {
C          0.00000        0.00000        0.00000
C          1.44480        0.00000        0.00000
O          1.80778        0.00000        1.35698
H          2.74096       -0.00448        1.44177
H         -0.39316       -0.10261       -1.03515
H         -0.31919       -0.76701        0.59940
H         -0.32922        0.91048        0.46093
H          1.81776       -0.81318       -0.54787
H          1.86655        0.75866       -0.68687
  0    1
}

set {
basis def2-SVP
}

E, wfn = energy('pbe0', return_wfn=True)
fchk_writer = psi4.FCHKWriter(wfn)
fchk_writer.write('FILL.fchk')

