
molecule ethanol {
C          0.00000        0.00000        0.00000
C          1.44480        0.00000        0.00000
O          1.75237        0.00000        1.31588
H          2.68223        0.01742        1.43029
H         -0.39601       -0.11779       -1.03245
H         -0.28392       -0.86856        0.50938
H         -0.34550        0.93442        0.52332
H          1.89129       -0.82602       -0.55651
H          1.87988        0.69812       -0.74065
  0    1
}

set {
basis def2-SVP
}

E, wfn = energy('pbe0', return_wfn=True)
fchk_writer = psi4.FCHKWriter(wfn)
fchk_writer.write('FILL.fchk')

