
molecule ethanol {
C          0.00000        0.00000        0.00000
C          1.45274        0.00000        0.00000
O          1.85381        0.00000        1.33090
H          2.82581       -0.00048        1.39632
H         -0.40626        0.00053       -1.01512
H         -0.38871       -0.91378        0.53590
H         -0.39164        0.86326        0.54270
H          1.81984       -0.84979       -0.50016
H          1.86048        0.84452       -0.49706
  0    1
}

set {
basis def2-SVP
}

E, wfn = energy('pbe0', return_wfn=True)
fchk_writer = psi4.FCHKWriter(wfn)
fchk_writer.write('FILL.fchk')

