
molecule ethanol {
C          0.00000        0.00000        0.00000
C          1.45274        0.00000        0.00000
O          1.83797        0.00000        1.27834
H          2.80733       -0.07087        1.34455
H         -0.40647       -0.10812       -1.00987
H         -0.34241       -0.88332        0.51803
H         -0.29158        0.92698        0.56749
H          1.83356       -0.87915       -0.52292
H          1.86048        0.84452       -0.49706
  0    1
}

set {
basis def2-SVP
}

E, wfn = energy('pbe0', return_wfn=True)
fchk_writer = psi4.FCHKWriter(wfn)
fchk_writer.write('FILL.fchk')

