
molecule ethanol {
C          0.00000        0.00000        0.00000
C          1.44480        0.00000        0.00000
O          1.75237        0.00000        1.31588
H          2.68223        0.01742        1.43029
H         -0.39601       -0.11779       -1.03245
H         -0.29250       -0.89481        0.52477
H         -0.34550        0.92399        0.54151
H          1.80411       -0.85476       -0.57588
H          1.94983        0.67560       -0.71675
  0    1
}

set {
basis def2-SVP
}

E, wfn = energy('pbe0', return_wfn=True)
fchk_writer = psi4.FCHKWriter(wfn)
fchk_writer.write('FILL.fchk')

