
molecule ethanol {
C          0.00000        0.00000        0.00000
C          1.44480        0.00000        0.00000
O          1.77126        0.00000        1.30130
H          2.70285        0.01742        1.40065
H         -0.39601       -0.11779       -1.03245
H         -0.28392       -0.86856        0.50938
H         -0.32922        0.91048        0.46093
H          1.83285       -0.84608       -0.57003
H          1.87988        0.75451       -0.68311
  0    1
}

set {
basis def2-SVP
}

E, wfn = energy('pbe0', return_wfn=True)
fchk_writer = psi4.FCHKWriter(wfn)
fchk_writer.write('FILL.fchk')

