
molecule ethanol {
C          0.00000        0.00000        0.00000
C          1.44480        0.00000        0.00000
O          1.75237        0.00000        1.31588
H          2.68223        0.01742        1.43029
H         -0.39601       -0.11779       -1.03245
H         -0.28392       -0.86856        0.50938
H         -0.34550        0.92412        0.54129
H          1.80095       -0.85567       -0.57649
H          1.94983        0.67560       -0.71675
  0    1
}

set {
basis def2-SVP
}

E, wfn = energy('pbe0', return_wfn=True)
fchk_writer = psi4.FCHKWriter(wfn)
fchk_writer.write('FILL.fchk')

