
molecule ethanol {
C          0.00000        0.00000        0.00000
C          1.41182        0.00000        0.00000
O          1.80036        0.00000        1.34988
H          2.75629       -0.00458        1.41856
H         -0.38206       -0.12065       -1.02071
H         -0.43275       -0.66863        0.64430
H         -0.33531        0.94433        0.43427
H          1.78478       -0.83131       -0.51995
H          1.83357        0.75866       -0.68687
  0    1
}

set {
basis def2-SVP
}

E, wfn = energy('pbe0', return_wfn=True)
fchk_writer = psi4.FCHKWriter(wfn)
fchk_writer.write('FILL.fchk')

