
molecule ethanol {
C          0.00000        0.00000        0.00000
C          1.51190        0.00000        0.00000
O          1.91296        0.00000        1.33090
H          2.88496       -0.00048        1.39632
H         -0.38827        0.00054       -1.02214
H         -0.37627       -0.88455        0.51876
H         -0.37627        0.88455        0.51876
H          1.89527       -0.88745       -0.52233
H          1.88222        0.85723       -0.50454
  0    1
}

set {
basis def2-SVP
}

E, wfn = energy('pbe0', return_wfn=True)
fchk_writer = psi4.FCHKWriter(wfn)
fchk_writer.write('FILL.fchk')

