
molecule ethanol {
C          0.00000        0.00000        0.00000
C          1.44480        0.00000        0.00000
O          1.77126        0.00000        1.30130
H          2.70285        0.01742        1.40065
H         -0.39601       -0.10251       -1.03408
H         -0.28392       -0.89448        0.46234
H         -0.32922        0.91048        0.46093
H          1.81776       -0.81318       -0.54787
H          1.90913        0.74487       -0.67438
  0    1
}

set {
basis def2-SVP
}

E, wfn = energy('pbe0', return_wfn=True)
fchk_writer = psi4.FCHKWriter(wfn)
fchk_writer.write('FILL.fchk')

