
molecule ethanol {
C          0.00000        0.00000        0.00000
C          1.45274        0.00000        0.00000
O          1.82738        0.00000        1.29838
H          2.75745       -0.09166        1.36624
H         -0.39601       -0.11779       -1.03245
H         -0.30444       -0.93134        0.54619
H         -0.34550        0.94655        0.50103
H          1.76022       -0.86856       -0.58518
H          1.87307        0.69290       -0.73511
  0    1
}

set {
basis def2-SVP
}

E, wfn = energy('pbe0', return_wfn=True)
fchk_writer = psi4.FCHKWriter(wfn)
fchk_writer.write('FILL.fchk')

