
molecule ethanol {
C          0.00000        0.00000        0.00000
C          1.45274        0.00000        0.00000
O          1.82738        0.00000        1.29838
H          2.78934       -0.09458        1.37625
H         -0.43774       -0.11587       -1.01568
H         -0.30444       -0.93134        0.54619
H         -0.29158        0.96062        0.50848
H          1.83356       -0.84833       -0.57155
H          1.86048        0.75179       -0.62857
  0    1
}

set {
basis def2-SVP
}

E, wfn = energy('pbe0', return_wfn=True)
fchk_writer = psi4.FCHKWriter(wfn)
fchk_writer.write('FILL.fchk')

