
molecule ethanol {
C          0.00000        0.00000        0.00000
C          1.44480        0.00000        0.00000
O          1.77362        0.00000        1.31073
H          2.70522        0.01742        1.41008
H         -0.39601       -0.11779       -1.03245
H         -0.28392       -0.86856        0.50938
H         -0.34550        0.95551        0.48372
H          1.89129       -0.82602       -0.55651
H          1.87988        0.75451       -0.68311
  0    1
}

set {
basis def2-SVP
}

E, wfn = energy('pbe0', return_wfn=True)
fchk_writer = psi4.FCHKWriter(wfn)
fchk_writer.write('FILL.fchk')

